%chk="/opt/GaussianWorkspace/Scratch/water.chk"
%mem=2000MB
%nprocshared=1
# hf/6-31g geom=nodistance

water

0 1
 O                  1.62256264   -0.89136489    0.00000000
 H                  2.58256264   -0.89136489    0.00000000
 H                  1.30210805    0.01357094    0.00000000

 1 2 1.0 3 1.0
 2
 3

! Comment